(set-logic QF_UF)
(declare-fun A0 () Bool)
(declare-fun A1 () Bool)
(declare-fun A2 () Bool)
(declare-fun A3 () Bool)
(declare-fun A4 () Bool)
(declare-fun A5 () Bool)
(declare-fun A6 () Bool)
(declare-fun A7 () Bool)
(declare-fun A8 () Bool)
(declare-fun A9 () Bool)
(declare-fun A10 () Bool)
(declare-fun A11 () Bool)
(declare-fun A12 () Bool)
(declare-fun A13 () Bool)
(declare-fun A14 () Bool)
(declare-fun A15 () Bool)
(declare-fun A16 () Bool)
(declare-fun A17 () Bool)
(declare-fun A18 () Bool)
(declare-fun A19 () Bool)
(declare-fun A20 () Bool)
(declare-fun A21 () Bool)
(declare-fun A22 () Bool)
(declare-fun A23 () Bool)
(declare-fun A24 () Bool)
(assert (let ((.def_0 (not A23))) (let ((.def_1 (not A19))) (let ((.def_2 (or .def_1 .def_0))) (let ((.def_3 (not A4))) (let ((.def_4 (= A7 .def_3))) (let ((.def_5 (or .def_4 .def_2))) (let ((.def_6 (= A23 A22))) (let ((.def_7 (not .def_6))) (let ((.def_8 (not A21))) (let ((.def_9 (or .def_8 A14))) (let ((.def_10 (and .def_9 .def_7))) (let ((.def_11 (and .def_10 .def_5))) (let ((.def_12 (not .def_11))) (let ((.def_13 (= A14 A2))) (let ((.def_14 (not .def_13))) (let ((.def_15 (not A12))) (let ((.def_16 (or .def_15 A11))) (let ((.def_17 (not .def_16))) (let ((.def_18 (and .def_17 .def_14))) (let ((.def_19 (not A22))) (let ((.def_20 (or .def_19 A13))) (let ((.def_21 (not .def_20))) (let ((.def_22 (not A10))) (let ((.def_23 (= .def_22 A17))) (let ((.def_24 (and .def_23 .def_21))) (let ((.def_25 (= .def_24 .def_18))) (let ((.def_26 (not .def_25))) (let ((.def_27 (and .def_26 .def_12))) (let ((.def_28 (and A8 A23))) (let ((.def_29 (not .def_28))) (let ((.def_30 (not A7))) (let ((.def_31 (and .def_0 .def_30))) (let ((.def_32 (not .def_31))) (let ((.def_33 (and .def_32 .def_29))) (let ((.def_34 (not .def_33))) (let ((.def_35 (not A0))) (let ((.def_36 (and A21 .def_35))) (let ((.def_37 (or A6 A21))) (let ((.def_38 (not .def_37))) (let ((.def_39 (and .def_38 .def_36))) (let ((.def_40 (not .def_39))) (let ((.def_41 (or .def_40 .def_34))) (let ((.def_42 (not A16))) (let ((.def_43 (= .def_42 A12))) (let ((.def_44 (not .def_43))) (let ((.def_45 (or .def_8 A2))) (let ((.def_46 (not .def_45))) (let ((.def_47 (= .def_46 .def_44))) (let ((.def_48 (not .def_47))) (let ((.def_49 (and A24 A20))) (let ((.def_50 (or A19 A0))) (let ((.def_51 (= .def_50 .def_49))) (let ((.def_52 (or .def_51 .def_48))) (let ((.def_53 (not .def_52))) (let ((.def_54 (or .def_53 .def_41))) (let ((.def_55 (and .def_54 .def_27))) (let ((.def_56 (not A1))) (let ((.def_57 (or A18 .def_56))) (let ((.def_58 (not .def_57))) (let ((.def_59 (and .def_35 A20))) (let ((.def_60 (and .def_59 .def_58))) (let ((.def_61 (not A9))) (let ((.def_62 (or .def_61 .def_61))) (let ((.def_63 (not .def_62))) (let ((.def_64 (not A11))) (let ((.def_65 (or .def_64 .def_19))) (let ((.def_66 (and .def_65 .def_63))) (let ((.def_67 (not .def_66))) (let ((.def_68 (and .def_67 .def_60))) (let ((.def_69 (not A13))) (let ((.def_70 (and .def_69 A10))) (let ((.def_71 (and A1 A7))) (let ((.def_72 (or .def_71 .def_70))) (let ((.def_73 (not .def_72))) (let ((.def_74 (or A5 A4))) (let ((.def_75 (and A7 A22))) (let ((.def_76 (and .def_75 .def_74))) (let ((.def_77 (not .def_76))) (let ((.def_78 (and .def_77 .def_73))) (let ((.def_79 (not .def_78))) (let ((.def_80 (or .def_79 .def_68))) (let ((.def_81 (not .def_80))) (let ((.def_82 (not A2))) (let ((.def_83 (and .def_56 .def_82))) (let ((.def_84 (not A17))) (let ((.def_85 (and .def_84 .def_19))) (let ((.def_86 (or .def_85 .def_83))) (let ((.def_87 (or .def_56 A4))) (let ((.def_88 (or A7 A11))) (let ((.def_89 (not .def_88))) (let ((.def_90 (and .def_89 .def_87))) (let ((.def_91 (= .def_90 .def_86))) (let ((.def_92 (not .def_91))) (let ((.def_93 (or A24 .def_22))) (let ((.def_94 (not A8))) (let ((.def_95 (or A13 .def_94))) (let ((.def_96 (= .def_95 .def_93))) (let ((.def_97 (or .def_56 .def_1))) (let ((.def_98 (not .def_97))) (let ((.def_99 (= .def_64 A15))) (let ((.def_100 (or .def_99 .def_98))) (let ((.def_101 (not .def_100))) (let ((.def_102 (or .def_101 .def_96))) (let ((.def_103 (not .def_102))) (let ((.def_104 (and .def_103 .def_92))) (let ((.def_105 (not .def_104))) (let ((.def_106 (and .def_105 .def_81))) (let ((.def_107 (not .def_106))) (let ((.def_108 (or .def_107 .def_55))) (let ((.def_109 (and A18 A23))) (let ((.def_110 (= .def_30 .def_3))) (let ((.def_111 (and .def_110 .def_109))) (let ((.def_112 (or .def_64 A19))) (let ((.def_113 (not .def_112))) (let ((.def_114 (or .def_61 A4))) (let ((.def_115 (or .def_114 .def_113))) (let ((.def_116 (not .def_115))) (let ((.def_117 (and .def_116 .def_111))) (let ((.def_118 (not A18))) (let ((.def_119 (and .def_118 .def_35))) (let ((.def_120 (not A15))) (let ((.def_121 (and .def_120 A23))) (let ((.def_122 (not .def_121))) (let ((.def_123 (and .def_122 .def_119))) (let ((.def_124 (not .def_123))) (let ((.def_125 (not A6))) (let ((.def_126 (= .def_125 .def_8))) (let ((.def_127 (not .def_126))) (let ((.def_128 (and A20 A21))) (let ((.def_129 (not .def_128))) (let ((.def_130 (or .def_129 .def_127))) (let ((.def_131 (or .def_130 .def_124))) (let ((.def_132 (not .def_131))) (let ((.def_133 (= .def_132 .def_117))) (let ((.def_134 (or A13 .def_35))) (let ((.def_135 (not .def_134))) (let ((.def_136 (or A23 .def_35))) (let ((.def_137 (not .def_136))) (let ((.def_138 (= .def_137 .def_135))) (let ((.def_139 (or A9 A19))) (let ((.def_140 (not .def_139))) (let ((.def_141 (and A12 A18))) (let ((.def_142 (or .def_141 .def_140))) (let ((.def_143 (not .def_142))) (let ((.def_144 (= .def_143 .def_138))) (let ((.def_145 (and A12 A19))) (let ((.def_146 (or A14 A0))) (let ((.def_147 (not .def_146))) (let ((.def_148 (and .def_147 .def_145))) (let ((.def_149 (not .def_148))) (let ((.def_150 (not A24))) (let ((.def_151 (= .def_150 A11))) (let ((.def_152 (not .def_151))) (let ((.def_153 (not A3))) (let ((.def_154 (or .def_153 .def_1))) (let ((.def_155 (not .def_154))) (let ((.def_156 (or .def_155 .def_152))) (let ((.def_157 (not .def_156))) (let ((.def_158 (or .def_157 .def_149))) (let ((.def_159 (not .def_158))) (let ((.def_160 (or .def_159 .def_144))) (let ((.def_161 (= .def_160 .def_133))) (let ((.def_162 (or .def_1 .def_69))) (let ((.def_163 (and .def_61 .def_125))) (let ((.def_164 (not .def_163))) (let ((.def_165 (or .def_164 .def_162))) (let ((.def_166 (or A13 .def_84))) (let ((.def_167 (not A14))) (let ((.def_168 (or .def_1 .def_167))) (let ((.def_169 (or .def_168 .def_166))) (let ((.def_170 (not .def_169))) (let ((.def_171 (or .def_170 .def_165))) (let ((.def_172 (= .def_167 A6))) (let ((.def_173 (or .def_118 A11))) (let ((.def_174 (not .def_173))) (let ((.def_175 (= .def_174 .def_172))) (let ((.def_176 (not .def_175))) (let ((.def_177 (or .def_42 .def_69))) (let ((.def_178 (not .def_177))) (let ((.def_179 (or .def_8 A19))) (let ((.def_180 (and .def_179 .def_178))) (let ((.def_181 (not .def_180))) (let ((.def_182 (and .def_181 .def_176))) (let ((.def_183 (not .def_182))) (let ((.def_184 (and .def_183 .def_171))) (let ((.def_185 (and A1 A21))) (let ((.def_186 (not .def_185))) (let ((.def_187 (or A19 .def_82))) (let ((.def_188 (or .def_187 .def_186))) (let ((.def_189 (not .def_188))) (let ((.def_190 (not A5))) (let ((.def_191 (= A10 .def_190))) (let ((.def_192 (and .def_190 A23))) (let ((.def_193 (not .def_192))) (let ((.def_194 (or .def_193 .def_191))) (let ((.def_195 (not .def_194))) (let ((.def_196 (and .def_195 .def_189))) (let ((.def_197 (or .def_150 A23))) (let ((.def_198 (not .def_197))) (let ((.def_199 (or A15 A3))) (let ((.def_200 (not .def_199))) (let ((.def_201 (and .def_200 .def_198))) (let ((.def_202 (or A19 A1))) (let ((.def_203 (or A1 A5))) (let ((.def_204 (and .def_203 .def_202))) (let ((.def_205 (or .def_204 .def_201))) (let ((.def_206 (or .def_205 .def_196))) (let ((.def_207 (not .def_206))) (let ((.def_208 (and .def_207 .def_184))) (let ((.def_209 (not .def_208))) (let ((.def_210 (or .def_209 .def_161))) (let ((.def_211 (not .def_210))) (let ((.def_212 (or .def_211 .def_108))) (let ((.def_213 (and A18 .def_150))) (let ((.def_214 (not .def_213))) (let ((.def_215 (or .def_190 .def_150))) (let ((.def_216 (and .def_215 .def_214))) (let ((.def_217 (= A6 .def_56))) (let ((.def_218 (not .def_217))) (let ((.def_219 (and .def_200 .def_218))) (let ((.def_220 (not .def_219))) (let ((.def_221 (and .def_220 .def_216))) (let ((.def_222 (not .def_221))) (let ((.def_223 (not A20))) (let ((.def_224 (= .def_223 .def_125))) (let ((.def_225 (not .def_224))) (let ((.def_226 (or A2 A16))) (let ((.def_227 (not .def_226))) (let ((.def_228 (and .def_227 .def_225))) (let ((.def_229 (or .def_84 .def_120))) (let ((.def_230 (not .def_229))) (let ((.def_231 (and .def_61 A0))) (let ((.def_232 (not .def_231))) (let ((.def_233 (and .def_232 .def_230))) (let ((.def_234 (not .def_233))) (let ((.def_235 (or .def_234 .def_228))) (let ((.def_236 (not .def_235))) (let ((.def_237 (or .def_236 .def_222))) (let ((.def_238 (= .def_223 A7))) (let ((.def_239 (not .def_238))) (let ((.def_240 (= .def_150 .def_42))) (let ((.def_241 (or .def_240 .def_239))) (let ((.def_242 (not .def_241))) (let ((.def_243 (or A0 .def_153))) (let ((.def_244 (not .def_243))) (let ((.def_245 (= .def_89 .def_244))) (let ((.def_246 (not .def_245))) (let ((.def_247 (or .def_246 .def_242))) (let ((.def_248 (or A5 .def_0))) (let ((.def_249 (or A3 A0))) (let ((.def_250 (not .def_249))) (let ((.def_251 (or .def_250 .def_248))) (let ((.def_252 (not .def_251))) (let ((.def_253 (and A23 A23))) (let ((.def_254 (not .def_253))) (let ((.def_255 (= A7 A2))) (let ((.def_256 (not .def_255))) (let ((.def_257 (and .def_256 .def_254))) (let ((.def_258 (= .def_257 .def_252))) (let ((.def_259 (not .def_258))) (let ((.def_260 (and .def_259 .def_247))) (let ((.def_261 (not .def_260))) (let ((.def_262 (= .def_261 .def_237))) (let ((.def_263 (or .def_64 .def_84))) (let ((.def_264 (and .def_22 A2))) (let ((.def_265 (or .def_264 .def_263))) (let ((.def_266 (not .def_265))) (let ((.def_267 (or .def_56 A21))) (let ((.def_268 (not .def_267))) (let ((.def_269 (or A8 A17))) (let ((.def_270 (and .def_269 .def_268))) (let ((.def_271 (not .def_270))) (let ((.def_272 (or .def_271 .def_266))) (let ((.def_273 (or A5 A17))) (let ((.def_274 (not .def_273))) (let ((.def_275 (and A17 A24))) (let ((.def_276 (not .def_275))) (let ((.def_277 (= .def_276 .def_274))) (let ((.def_278 (and A24 A4))) (let ((.def_279 (or A6 A22))) (let ((.def_280 (not .def_279))) (let ((.def_281 (and .def_280 .def_278))) (let ((.def_282 (or .def_281 .def_277))) (let ((.def_283 (= .def_282 .def_272))) (let ((.def_284 (and A22 .def_64))) (let ((.def_285 (or .def_64 .def_0))) (let ((.def_286 (not .def_285))) (let ((.def_287 (or .def_286 .def_284))) (let ((.def_288 (not .def_287))) (let ((.def_289 (or A16 .def_22))) (let ((.def_290 (or A6 .def_69))) (let ((.def_291 (not .def_290))) (let ((.def_292 (or .def_291 .def_289))) (let ((.def_293 (or .def_292 .def_288))) (let ((.def_294 (or A2 A13))) (let ((.def_295 (not .def_294))) (let ((.def_296 (or .def_35 .def_82))) (let ((.def_297 (not .def_296))) (let ((.def_298 (or .def_297 .def_295))) (let ((.def_299 (not .def_298))) (let ((.def_300 (or A5 A11))) (let ((.def_301 (not .def_300))) (let ((.def_302 (and .def_42 A23))) (let ((.def_303 (not .def_302))) (let ((.def_304 (and .def_303 .def_301))) (let ((.def_305 (not .def_304))) (let ((.def_306 (and .def_305 .def_299))) (let ((.def_307 (or .def_306 .def_293))) (let ((.def_308 (not .def_307))) (let ((.def_309 (and .def_308 .def_283))) (let ((.def_310 (or .def_309 .def_262))) (let ((.def_311 (not .def_310))) (let ((.def_312 (and .def_150 .def_223))) (let ((.def_313 (or .def_84 A21))) (let ((.def_314 (or .def_313 .def_312))) (let ((.def_315 (or .def_125 A21))) (let ((.def_316 (not .def_315))) (let ((.def_317 (and A7 .def_153))) (let ((.def_318 (not .def_317))) (let ((.def_319 (and .def_318 .def_316))) (let ((.def_320 (or .def_319 .def_314))) (let ((.def_321 (or A7 .def_30))) (let ((.def_322 (and A0 A19))) (let ((.def_323 (or .def_322 .def_321))) (let ((.def_324 (not .def_323))) (let ((.def_325 (and .def_94 A14))) (let ((.def_326 (or .def_42 .def_22))) (let ((.def_327 (and .def_326 .def_325))) (let ((.def_328 (not .def_327))) (let ((.def_329 (or .def_328 .def_324))) (let ((.def_330 (not .def_329))) (let ((.def_331 (or .def_330 .def_320))) (let ((.def_332 (or A20 A2))) (let ((.def_333 (= .def_0 A6))) (let ((.def_334 (not .def_333))) (let ((.def_335 (and .def_334 .def_332))) (let ((.def_336 (not .def_335))) (let ((.def_337 (= .def_223 .def_22))) (let ((.def_338 (not .def_337))) (let ((.def_339 (or A12 .def_3))) (let ((.def_340 (or .def_339 .def_338))) (let ((.def_341 (or .def_340 .def_336))) (let ((.def_342 (not .def_341))) (let ((.def_343 (and .def_94 .def_153))) (let ((.def_344 (not .def_343))) (let ((.def_345 (or .def_64 .def_22))) (let ((.def_346 (and .def_345 .def_344))) (let ((.def_347 (not .def_346))) (let ((.def_348 (or .def_61 A19))) (let ((.def_349 (not .def_348))) (let ((.def_350 (and .def_69 .def_61))) (let ((.def_351 (not .def_350))) (let ((.def_352 (or .def_351 .def_349))) (let ((.def_353 (or .def_352 .def_347))) (let ((.def_354 (not .def_353))) (let ((.def_355 (and .def_354 .def_342))) (let ((.def_356 (or .def_355 .def_331))) (let ((.def_357 (and A3 .def_150))) (let ((.def_358 (not .def_357))) (let ((.def_359 (and A24 .def_190))) (let ((.def_360 (not .def_359))) (let ((.def_361 (and .def_360 .def_358))) (let ((.def_362 (and .def_64 A3))) (let ((.def_363 (not .def_362))) (let ((.def_364 (and .def_94 A2))) (let ((.def_365 (not .def_364))) (let ((.def_366 (or .def_365 .def_363))) (let ((.def_367 (not .def_366))) (let ((.def_368 (= .def_367 .def_361))) (let ((.def_369 (not .def_368))) (let ((.def_370 (and A15 A13))) (let ((.def_371 (or A0 A6))) (let ((.def_372 (not .def_371))) (let ((.def_373 (= .def_372 .def_370))) (let ((.def_374 (or A9 A9))) (let ((.def_375 (or A10 .def_22))) (let ((.def_376 (or .def_375 .def_374))) (let ((.def_377 (or .def_376 .def_373))) (let ((.def_378 (and .def_377 .def_369))) (let ((.def_379 (and .def_118 .def_64))) (let ((.def_380 (and A12 .def_118))) (let ((.def_381 (not .def_380))) (let ((.def_382 (and .def_381 .def_379))) (let ((.def_383 (not .def_382))) (let ((.def_384 (or .def_82 A22))) (let ((.def_385 (not .def_384))) (let ((.def_386 (and .def_64 .def_223))) (let ((.def_387 (= .def_386 .def_385))) (let ((.def_388 (or .def_387 .def_383))) (let ((.def_389 (not .def_388))) (let ((.def_390 (and A21 .def_0))) (let ((.def_391 (not .def_390))) (let ((.def_392 (= A4 A18))) (let ((.def_393 (or .def_392 .def_391))) (let ((.def_394 (not .def_393))) (let ((.def_395 (and A16 .def_125))) (let ((.def_396 (not .def_395))) (let ((.def_397 (or A13 A19))) (let ((.def_398 (not .def_397))) (let ((.def_399 (or .def_398 .def_396))) (let ((.def_400 (= .def_399 .def_394))) (let ((.def_401 (not .def_400))) (let ((.def_402 (or .def_401 .def_389))) (let ((.def_403 (and .def_402 .def_378))) (let ((.def_404 (not .def_403))) (let ((.def_405 (or .def_404 .def_356))) (let ((.def_406 (and .def_405 .def_311))) (let ((.def_407 (not .def_406))) (let ((.def_408 (and .def_407 .def_212))) .def_408))))))))))))))))))))))))))))))))))))))))))))))))))))))))))))))))))))))))))))))))))))))))))))))))))))))))))))))))))))))))))))))))))))))))))))))))))))))))))))))))))))))))))))))))))))))))))))))))))))))))))))))))))))))))))))))))))))))))))))))))))))))))))))))))))))))))))))))))))))))))))))))))))))))))))))))))))))))))))))))))))))))))))))))))))))))))))))))))))))))))))))))))))))))))))))))))))))))))))))))))))))))))))
(check-sat)
